c An instance of conditional planning (by rintanen@informatik.uni-ulm.de)
p cnf 37 99
e 18 19 20 21 22 23 24 25 26 27 28 29 0
a 31 0
e 1 2 3 4 5 6 7 8 9 10 11 12 13 14 15 16 17 30 32 33 34 35 36 37 0
-32 31 0
31 33 0
-31 32 0
-31 -33 0
-34 0
-35 0
-36 0
37 0
-18 -34 0
-18 -35 0
-9 -19 0
-6 -19 0
-10 -20 0
-7 -20 0
-22 -36 0
-22 -34 0
-15 -24 0
-9 -24 0
-16 -26 0
-10 -26 0
-18 9 0
-18 6 0
-19 10 0
-19 7 0
-20 11 0
-20 8 0
-22 15 0
-22 9 0
-24 16 0
-24 10 0
-26 17 0
-26 11 0
-9 -23 0
-10 -25 0
-11 -27 0
-2 -18 -33 0
-3 -4 -19 0
-5 -20 -30 0
-2 -22 -32 0
-4 -12 -24 0
-13 -26 -30 0
-3 33 0
-5 3 0
-1 5 0
-33 3 0
-3 5 0
-5 1 0
-2 37 0
-4 2 0
-30 4 0
-37 2 18 22 0
-37 2 22 33 0
-37 2 18 32 0
-37 2 32 33 0
-2 4 19 24 0
-2 3 4 24 0
-2 4 12 19 0
-2 3 4 12 0
-4 20 26 30 0
-4 5 26 30 0
-4 13 20 30 0
-4 5 13 30 0
-6 18 35 0
-7 6 19 0
-8 7 20 0
-35 6 0
-6 7 0
-7 8 0
-9 18 22 34 0
-10 9 19 24 0
-11 10 20 26 0
-34 9 23 0
-9 10 25 0
-10 11 27 0
-12 32 0
-13 12 0
-14 13 0
-32 12 0
-12 13 0
-13 14 0
-15 22 36 0
-16 15 24 0
-17 16 26 0
-36 15 0
-15 16 0
-16 17 0
-18 -22 0
-19 -24 0
-20 -26 0
-21 -28 0
-18 -23 0
-19 -25 0
-20 -27 0
-21 -29 0
-22 -23 0
-24 -25 0
-26 -27 0
-28 -29 0
-30 0
